p wcnf 168 336 337 
1 -73 59 0 
1 -111 51 0 
1 -50 167 0 
1 -70 6 0 
1 -52 124 0 
1 106 -122 0 
1 -66 -12 0 
1 -146 139 0 
1 -168 -63 0 
1 -21 -72 0 
1 92 -67 0 
1 -23 90 0 
1 57 -75 0 
1 60 -78 0 
1 109 140 0 
1 1 -57 0 
1 98 -72 0 
1 3 -74 0 
1 23 90 0 
1 -145 148 0 
1 -120 126 0 
1 23 -136 0 
1 -103 -24 0 
1 -34 -17 0 
1 67 57 0 
1 -152 60 0 
1 -16 127 0 
1 -95 -37 0 
1 -149 10 0 
1 22 108 0 
1 -96 21 0 
1 -144 21 0 
1 158 -48 0 
1 -18 -28 0 
1 -167 168 0 
1 -135 144 0 
1 158 -82 0 
1 96 101 0 
1 151 72 0 
1 -100 99 0 
1 -18 -37 0 
1 42 -162 0 
1 2 129 0 
1 28 -98 0 
1 112 111 0 
1 117 -44 0 
1 167 -116 0 
1 121 -110 0 
1 -121 11 0 
1 -22 -117 0 
1 15 37 0 
1 38 106 0 
1 12 63 0 
1 55 -140 0 
1 -6 84 0 
1 166 -37 0 
1 41 81 0 
1 70 -134 0 
1 -98 125 0 
1 73 129 0 
1 53 -166 0 
1 131 -127 0 
1 -97 -96 0 
1 32 -114 0 
1 -101 62 0 
1 27 -91 0 
1 -152 91 0 
1 12 102 0 
1 -106 -69 0 
1 167 -66 0 
1 28 -101 0 
1 -37 -69 0 
1 127 -90 0 
1 -31 -149 0 
1 -156 32 0 
1 70 165 0 
1 -47 20 0 
1 -139 -52 0 
1 128 -107 0 
1 162 -83 0 
1 -155 -22 0 
1 -143 6 0 
1 31 -137 0 
1 4 -56 0 
1 -161 68 0 
1 -64 129 0 
1 50 51 0 
1 150 -89 0 
1 -13 22 0 
1 -101 -24 0 
1 -73 140 0 
1 31 67 0 
1 62 20 0 
1 -97 -98 0 
1 143 93 0 
1 16 72 0 
1 -1 58 0 
1 -107 52 0 
1 -16 -86 0 
1 52 148 0 
1 -96 -28 0 
1 82 52 0 
1 32 -59 0 
1 -35 121 0 
1 -135 87 0 
1 149 -11 0 
1 82 -17 0 
1 -142 -29 0 
1 -106 -32 0 
1 142 110 0 
1 -61 -145 0 
1 -62 -118 0 
1 105 115 0 
1 8 -160 0 
1 -26 164 0 
1 94 84 0 
1 -18 124 0 
1 -85 156 0 
1 48 65 0 
1 -128 -10 0 
1 88 123 0 
1 145 76 0 
1 -127 -112 0 
1 16 -22 0 
1 152 33 0 
1 -96 47 0 
1 -116 125 0 
1 148 -56 0 
1 91 54 0 
1 34 -44 0 
1 45 -141 0 
1 -107 -121 0 
1 140 -20 0 
1 104 91 0 
1 69 -113 0 
1 19 -106 0 
1 -115 -72 0 
1 37 151 0 
1 91 48 0 
1 77 17 0 
1 57 -146 0 
1 -84 128 0 
1 79 51 0 
1 121 -145 0 
1 -63 -88 0 
1 -115 92 0 
1 167 -50 0 
1 -47 -19 0 
1 97 86 0 
1 73 -21 0 
1 -76 77 0 
1 100 40 0 
1 62 -139 0 
1 -25 -60 0 
1 31 -128 0 
1 130 54 0 
1 -97 -66 0 
1 147 65 0 
1 72 136 0 
1 -69 89 0 
1 -7 157 0 
1 166 -40 0 
1 -116 131 0 
1 130 129 0 
1 40 154 0 
1 91 146 0 
1 -119 -116 0 
1 129 -117 0 
1 109 113 0 
1 72 -95 0 
1 87 58 0 
1 -143 155 0 
1 -165 135 0 
1 -49 -21 0 
1 -158 50 0 
1 23 -78 0 
1 55 93 0 
1 152 8 0 
1 -63 -145 0 
1 97 -33 0 
1 149 -114 0 
1 -19 129 0 
1 2 75 0 
1 -125 82 0 
1 131 61 0 
1 130 115 0 
1 30 60 0 
1 -46 102 0 
1 -74 115 0 
1 145 54 0 
1 85 -147 0 
1 132 20 0 
1 -15 -109 0 
1 -158 89 0 
1 -36 -153 0 
1 -130 -131 0 
1 -158 148 0 
1 -154 -43 0 
1 117 26 0 
1 -81 -125 0 
1 73 -164 0 
1 -31 79 0 
1 -53 39 0 
1 -99 63 0 
1 97 -114 0 
1 -129 73 0 
1 166 134 0 
1 -105 28 0 
1 162 -114 0 
1 162 -113 0 
1 -154 166 0 
1 101 13 0 
1 104 132 0 
1 103 -64 0 
1 -134 -83 0 
1 -152 -80 0 
1 -20 -144 0 
1 44 -168 0 
1 18 60 0 
1 25 -63 0 
1 35 43 0 
1 -50 -25 0 
1 99 162 0 
1 76 -116 0 
1 -5 -33 0 
1 -33 -42 0 
1 62 -110 0 
1 -130 11 0 
1 120 26 0 
1 -111 23 0 
1 36 -70 0 
1 -168 -123 0 
1 -41 -20 0 
1 60 -96 0 
1 33 -2 0 
1 84 -53 0 
1 74 89 0 
1 -98 -108 0 
1 -140 -121 0 
1 96 -90 0 
1 -49 38 0 
1 -60 113 0 
1 -162 -116 0 
1 50 -131 0 
1 -106 -57 0 
1 84 -92 0 
1 -4 163 0 
1 142 -12 0 
1 -57 126 0 
1 -134 115 0 
1 -148 -118 0 
1 -25 -5 0 
1 132 103 0 
1 -150 -40 0 
1 -57 116 0 
1 80 -144 0 
1 114 92 0 
1 -98 53 0 
1 -72 140 0 
1 93 -147 0 
1 -94 -62 0 
1 21 108 0 
1 63 107 0 
1 -153 -78 0 
1 -71 143 0 
1 26 -65 0 
1 76 134 0 
1 45 -19 0 
1 -62 93 0 
1 93 143 0 
1 -69 -163 0 
1 -163 -71 0 
1 -95 63 0 
1 -129 -58 0 
1 -20 -113 0 
1 -18 -75 0 
1 -21 39 0 
1 15 -149 0 
1 55 -133 0 
1 -64 136 0 
1 11 43 0 
1 168 -10 0 
1 43 -126 0 
1 -23 -34 0 
1 24 -99 0 
1 -10 -4 0 
1 31 -163 0 
1 102 90 0 
1 3 -164 0 
1 68 -2 0 
1 -48 63 0 
1 -95 106 0 
1 -131 89 0 
1 -125 97 0 
1 -141 -92 0 
1 166 35 0 
1 -137 1 0 
1 26 -121 0 
1 49 -48 0 
1 -18 75 0 
1 -136 151 0 
1 -41 -87 0 
1 14 84 0 
1 -93 144 0 
1 81 43 0 
1 49 150 0 
1 -75 -87 0 
1 19 99 0 
1 -114 -151 0 
1 79 34 0 
1 89 59 0 
1 -149 -25 0 
1 -65 89 0 
1 118 109 0 
1 -136 -71 0 
1 67 -125 0 
1 147 62 0 
1 -62 -162 0 
1 8 122 0 
1 16 -25 0 
1 -54 -1 0 
1 62 158 0 
1 52 96 0 
1 -100 101 0 
1 -160 -72 0 
1 33 154 0 
1 -115 -116 0 
1 -102 -77 0 
1 86 -26 0 
1 102 66 0 
1 -124 160 0 
1 -42 -18 0 
1 -140 72 0 
1 -146 -47 0 
1 -139 -120 0 
1 -35 132 0 
